instances/p2/p2_10_8-3.dzn
Alphabet = {A,C,G,T};
ns = 10;
nc = 6;
neighbours = [| I(T),I(C),I(C),Null,Null,Null | I(G),I(C),I(G),Null,Null,Null | I(C),I(G),I(G),I(T),Null,Null | Null,Null,Null,Null,Null,Null | I(G),I(A),I(G),Null,Null,Null | I(A),I(T),I(C),I(C),I(C),I(C) | I(G),I(A),I(C),Null,Null,Null | I(T),I(A),I(A),I(C),I(T),I(G) | I(G),I(G),I(G),I(A),Null,Null | I(T),I(G),I(T),I(G),I(A),I(C) |];
