instances/p2/p2_10_8-3.txt
{
	"num_strings": 10,
	"alphabet": "ACGT",
	"strings": [
		"TCC",
		"GCG",
		"CGGT",
		"",
		"GAG",
		"ATCCCC",
		"GAC",
		"TAACTG",
		"GGGA",
		"TGTGAC"
	],
	"str_length":[3,3,4,0,3,6,3,6,4,6]
}